Speck32/MILP/sol/6Round_388.sol
# Objective value = 16.0
pro0Rd0 -5.966577448754134e-16
pro1Rd0 1.0000000000000004
pro2Rd0 0.9999999999999958
pro3Rd0 1.9392601070238375e-15
pro4Rd0 3.868630994596043e-15
pro5Rd0 -2.3589334911264287e-16
pro6Rd0 -0.0
pro7Rd0 1.000000000000002
pro8Rd0 -0.0
pro9Rd0 -7.076800473379288e-16
pro10Rd0 -0.0
pro11Rd0 -0.0
pro12Rd0 1.0000000000000024
pro13Rd0 -0.0
pro14Rd0 1.0
pro0Rd1 -2.0952845663981573e-15
pro1Rd1 -0.0
pro2Rd1 -2.0952845663981573e-15
pro3Rd1 1.0
pro4Rd1 -0.0
pro5Rd1 1.0000000000000004
pro6Rd1 -6.521688961066712e-16
pro7Rd1 1.0
pro8Rd1 -0.0
pro9Rd1 1.7523902571726184e-15
pro10Rd1 2.7878022452585346e-15
pro11Rd1 -6.244133204910419e-16
pro12Rd1 -0.0
pro13Rd1 -1.5998393081925334e-15
pro14Rd1 1.0
pro0Rd2 -9.75425987701492e-16
pro1Rd2 8.572303773453992e-16
pro2Rd2 -0.0
pro3Rd2 7.876070243166571e-16
pro4Rd2 -1.4888170057300181e-15
pro5Rd2 -0.0
pro6Rd2 -2.0952845663981573e-15
pro7Rd2 -2.0952845663981573e-15
pro8Rd2 1.059872578312241e-15
pro9Rd2 -9.75425987701492e-16
pro10Rd2 0.9999999999999981
pro11Rd2 -2.9776340114600355e-15
pro12Rd2 1.0
pro13Rd2 0.0
pro14Rd2 -0.0
pro0Rd3 -2.297544870404829e-16
pro1Rd3 1.0
pro2Rd3 0.0
pro3Rd3 0.0
pro4Rd3 -0.0
pro5Rd3 -9.75425987701492e-16
pro6Rd3 2.383864374835865e-16
pro7Rd3 -0.0
pro8Rd3 2.5990672087887636e-15
pro9Rd3 -1.5998393081925334e-15
pro10Rd3 -0.0
pro11Rd3 0.0
pro12Rd3 0.0
pro13Rd3 0.0
pro14Rd3 -0.0
pro0Rd4 -3.495005870643047e-15
pro1Rd4 1.0
pro2Rd4 9.930328164702748e-16
pro3Rd4 9.930328164702748e-16
pro4Rd4 -6.364255886112506e-16
pro5Rd4 2.0354088784794425e-16
pro6Rd4 -0.0
pro7Rd4 -0.0
pro8Rd4 1.0
pro9Rd4 -8.420965861914067e-15
pro10Rd4 7.894919286223303e-16
pro11Rd4 7.894919286223303e-16
pro12Rd4 7.894919286223303e-16
pro13Rd4 8.254210184557479e-16
pro14Rd4 6.074475830085773e-16
pro0Rd5 -0.0
pro1Rd5 0.9999999999999981
pro2Rd5 -0.0
pro3Rd5 -0.0
pro4Rd5 -0.0
pro5Rd5 -0.0
pro6Rd5 5.12849367834495e-15
pro7Rd5 4.727263259526711e-15
pro8Rd5 1.000000000000004
pro9Rd5 2.5596808623302127e-15
pro10Rd5 1.434038073474155e-16
pro11Rd5 -0.0
pro12Rd5 -0.0
pro13Rd5 -0.0
pro14Rd5 -4.595089740809658e-16
p0 -5.96657744875413e-16
p1 -2.0952845663981573e-15
p2 -2.0952845663981573e-15
p3 -1.4153600946758576e-15
p4 -2.0952845663981573e-15
p5 -7.076800473379288e-16
p6 1.0000000000000009
p7 -1.4888170057300181e-15
p8 1.0000000000000004
p9 1.0
p10 1.0
p11 1.0000000000000029
p12 0.9999999999999974
p13 2.3105915843464667e-15
p14 1.7588701153269364e-15
p15 -2.3589334911264287e-16
p16 -1.9842622639356424e-15
p17 1.0000000000000004
p18 -2.1964970530679473e-15
p19 1.0
p20 -2.0952845663981573e-15
p21 5.26320917996785e-15
p22 -4.717866982252857e-16
p23 -5.96657744875413e-16
p24 1.0
p25 -2.0952845663981573e-15
p26 0.0
p27 -2.0952845663981573e-15
p28 -7.076800473379288e-16
p29 -2.4645627397089796e-15
p30 -1.4888170057300181e-15
p31 1.0
p0Rd1 -6.521688961066712e-16
p16Rd1 -1.4888170057300181e-15
temp0Rnd0 -2.1964970530679473e-15
p1Rd1 1.0
p17Rd1 0.0
temp1Rnd0 1.0
p2Rd1 -0.0
p18Rd1 -2.0952845663981573e-15
temp2Rnd0 -2.0952845663981573e-15
p3Rd1 1.7523902571726184e-15
p19Rd1 -2.0952845663981573e-15
temp3Rnd0 1.7523902571726184e-15
p4Rd1 2.880647504757424e-16
p20Rd1 7.876070243166571e-16
temp4Rnd0 2.880647504757424e-16
p5Rd1 -2.1409859018366887e-15
p21Rd1 -1.4888170057300181e-15
temp5Rnd0 -2.1409859018366887e-15
p6Rd1 0.0
p22Rd1 1.0
temp6Rnd0 1.0
p7Rd1 -5.96657744875413e-16
p23Rd1 -1.3043377922133424e-15
temp7Rnd0 -2.0952845663981573e-15
p8Rd1 1.0
p24Rd1 1.0
temp8Rnd0 1.0
p9Rd1 -2.0952845663981573e-15
p25Rd1 -0.0
temp9Rnd0 -2.0952845663981573e-15
p10Rd1 -7.076800473379288e-16
p26Rd1 -0.0
temp10Rnd0 -7.076800473379288e-16
p11Rd1 -2.0952845663981573e-15
p27Rd1 -6.364255886112506e-16
temp11Rnd0 -2.4645627397089796e-15
p12Rd1 -7.076800473379288e-16
p28Rd1 -9.75425987701492e-16
temp12Rnd0 -1.4888170057300181e-15
p13Rd1 1.0
p29Rd1 -0.0
temp13Rnd0 1.0
p14Rd1 -1.4888170057300181e-15
p30Rd1 -1.5998393081925334e-15
temp14Rnd0 -2.5642148645447257e-15
p15Rd1 -6.521688961066712e-16
p31Rd1 1.0
temp15Rnd0 1.0
temp0 1.0
p0Rd2 -2.0952845663981573e-15
p16Rd2 0.0
temp0Rnd1 -2.0952845663981573e-15
p1Rd2 -2.0952845663981573e-15
p17Rd2 0.0
temp1Rnd1 -2.0952845663981573e-15
p2Rd2 -2.0952845663981573e-15
p18Rd2 -1.355428451158608e-16
temp2Rnd1 -4.093599679228555e-16
p3Rd2 -0.0
p19Rd2 -1.4888170057300181e-15
temp3Rnd1 -1.4888170057300181e-15
p4Rd2 0.9999999999999993
p20Rd2 7.876070243166571e-16
temp4Rnd1 1.0
p5Rd2 -1.4888170057300181e-15
p21Rd2 -1.4888170057300181e-15
temp5Rnd1 -2.252008204299205e-15
p6Rd2 1.0
p22Rd2 0.0
temp6Rnd1 1.0
p7Rd2 -0.0
p23Rd2 0.0
temp7Rnd1 -0.0
p8Rd2 -0.0
p24Rd2 0.0
temp8Rnd1 0.0
p9Rd2 -0.0
p25Rd2 -6.364255886112506e-16
temp9Rnd1 -6.364255886112506e-16
p10Rd2 -0.0
p26Rd2 -9.75425987701492e-16
temp10Rnd1 -9.75425987701492e-16
p11Rd2 1.7523902571726184e-15
p27Rd2 1.7523902571726184e-15
temp11Rnd1 1.7523902571726184e-15
p12Rd2 -1.4888170057300181e-15
p28Rd2 -3.0331451626912937e-15
temp12Rnd1 -3.0331451626912937e-15
p13Rd2 0.0
p29Rd2 1.0
temp13Rnd1 1.0
p14Rd2 -1.4888170057300181e-15
p30Rd2 -0.0
temp14Rnd1 -1.4888170057300181e-15
p15Rd2 -0.0
p31Rd2 0.0
temp15Rnd1 0.0
temp1 1.0
p0Rd3 -9.75425987701492e-16
p16Rd3 -3.5971376278605457e-16
temp0Rnd2 -7.006468282821675e-16
p1Rd3 -9.75425987701492e-16
p17Rd3 -2.297544870404829e-16
temp1Rnd2 -1.4372043609867904e-15
p2Rd3 7.876070243166571e-16
p18Rd3 -0.0
temp2Rnd2 7.876070243166571e-16
p3Rd3 -1.4888170057300181e-15
p19Rd3 0.0
temp3Rnd2 -1.4888170057300181e-15
p4Rd3 0.0
p20Rd3 0.0
temp4Rnd2 0.0
p5Rd3 0.0
p21Rd3 0.0
temp5Rnd2 0.0
p6Rd3 -0.0
p22Rd3 -0.0
temp6Rnd2 -0.0
p7Rd3 -0.0
p23Rd3 -6.364255886112506e-16
temp7Rnd2 -6.364255886112506e-16
p8Rd3 -0.0
p24Rd3 -9.75425987701492e-16
temp8Rnd2 -9.75425987701492e-16
p9Rd3 4.685498000763875e-16
p25Rd3 2.026651027939604e-15
temp9Rnd2 2.026651027939604e-15
p10Rd3 -0.0
p26Rd3 -3.0331451626912937e-15
temp10Rnd2 -3.0331451626912937e-15
p11Rd3 1.0
p27Rd3 0.0
temp11Rnd2 1.0
p12Rd3 0.0
p28Rd3 -0.0
temp12Rnd2 -0.0
p13Rd3 -0.0
p29Rd3 -0.0
temp13Rnd2 0.0
p14Rd3 -0.0
p30Rd3 0.0
temp14Rnd2 0.0
p15Rd3 0.0
p31Rd3 -0.0
temp15Rnd2 -0.0
temp2 0.0
p0Rd4 7.77156117237606e-16
p16Rd4 7.77156117237606e-16
temp0Rnd3 7.77156117237606e-16
p1Rd4 -4.595089740809658e-16
p17Rd4 -4.595089740809658e-16
temp1Rnd3 -4.595089740809658e-16
p2Rd4 1.0
p18Rd4 1.0
temp2Rnd3 1.0
p3Rd4 0.0
p19Rd4 0.0
temp3Rnd3 -0.0
p4Rd4 0.0
p20Rd4 0.0
temp4Rnd3 0.0
p5Rd4 -0.0
p21Rd4 -6.364255886112506e-16
temp5Rnd3 -6.364255886112506e-16
p6Rd4 -9.75425987701492e-16
p22Rd4 2.0354088784794425e-16
temp6Rnd3 -8.597777559697052e-16
p7Rd4 1.3327616375488846e-15
p23Rd4 7.77156117237606e-16
temp7Rnd3 2.026651027939604e-15
p8Rd4 1.198024553052236e-15
p24Rd4 -4.595089740809658e-16
temp8Rnd3 -1.2097648369951768e-15
p9Rd4 6.735141983516165e-15
p25Rd4 6.735141983516165e-15
temp9Rnd3 6.735141983516165e-15
p10Rd4 -4.494206592805683e-15
p26Rd4 -4.494206592805683e-15
temp10Rnd3 -4.494206592805683e-15
p11Rd4 0.0
p27Rd4 0.0
temp11Rnd3 0.0
p12Rd4 -0.0
p28Rd4 -0.0
temp12Rnd3 -0.0
p13Rd4 -0.0
p29Rd4 -0.0
temp13Rnd3 0.0
p14Rd4 0.0
p30Rd4 -3.5971376278605457e-16
temp14Rnd3 -3.5971376278605457e-16
p15Rd4 0.0
p31Rd4 -2.297544870404829e-16
temp15Rnd3 -2.297544870404829e-16
temp3 0.0
p0Rd5 0.0
p16Rd5 1.0
temp0Rnd4 1.0
p1Rd5 -3.926759269108384e-15
p17Rd5 -3.926759269108384e-15
temp1Rnd4 -3.926759269108384e-15
p2Rd5 0.999999999999999
p18Rd5 0.999999999999999
temp2Rnd4 0.999999999999999
p3Rd5 9.930328164702748e-16
p19Rd5 7.894919286223303e-16
temp3Rnd4 5.678454078127467e-16
p4Rd5 9.930328164702748e-16
p20Rd5 7.894919286223303e-16
temp4Rnd4 9.930328164702748e-16
p5Rd5 4.714115292597189e-16
p21Rd5 5.307593860188235e-16
temp5Rnd4 7.183595730053646e-16
p6Rd5 4.070817756958885e-16
p22Rd5 -5.655849615041893e-15
temp6Rnd4 -2.7986272554822275e-15
p7Rd5 7.77156117237606e-16
p23Rd5 5.902474715047301e-15
temp7Rnd4 6.735141983516165e-15
p8Rd5 -4.595089740809658e-16
p24Rd5 9.115262928808426e-16
temp8Rnd4 -2.145994727273233e-15
p9Rd5 1.0000000000000064
p25Rd5 1.0000000000000064
temp9Rnd4 1.0000000000000064
p10Rd5 -3.926759269108384e-15
p26Rd5 -3.926759269108384e-15
temp10Rnd4 -3.926759269108384e-15
p11Rd5 7.894919286223303e-16
p27Rd5 7.894919286223303e-16
temp11Rnd4 7.894919286223303e-16
p12Rd5 7.894919286223303e-16
p28Rd5 4.714115292597189e-16
temp12Rnd4 4.714115292597189e-16
p13Rd5 7.894919286223303e-16
p29Rd5 4.070817756958885e-16
temp13Rnd4 4.070817756958885e-16
p14Rd5 5.307593860188235e-16
p30Rd5 -1.2397490441647606e-15
temp14Rnd4 1.1257946683378502e-16
p15Rd5 6.074475830085773e-16
p31Rd5 -3.0839528461810007e-15
temp15Rnd4 -1.5651516332813958e-15
temp4 6.074475830085773e-16
p0Rd6 -2.5932770033866556e-15
p16Rd6 1.0000000000000033
temp0Rnd5 1.0
p1Rd6 -3.926759269108384e-15
p17Rd6 -4.494206592805683e-15
temp1Rnd5 -3.926759269108384e-15
p2Rd6 0.9999999999999988
p18Rd6 0.9999999999999981
temp2Rnd5 0.9999999999999988
p3Rd6 7.894919286223303e-16
p19Rd6 -3.23784672952637e-16
temp3Rnd5 5.307593860188235e-16
p4Rd6 7.894919286223303e-16
p20Rd6 -4.67206865711016e-15
temp4Rnd5 -4.67206865711016e-15
p5Rd6 5.307593860188235e-16
p21Rd6 5.38125630814635e-15
temp5Rnd5 5.902474715047301e-15
p6Rd6 6.629587342398355e-16
p22Rd6 -2.8988197515281846e-17
temp6Rnd5 9.115262928808426e-16
p7Rd6 1.1419546452011057e-14
p23Rd6 0.9999999999999951
temp7Rnd5 1.0000000000000064
p8Rd6 5.416744947482522e-15
p24Rd6 2.267141795611748e-15
temp8Rnd5 2.267141795611748e-15
p9Rd6 -5.382173979962714e-15
p25Rd6 -4.7037043538029e-15
temp9Rnd5 -4.7037043538029e-15
p10Rd6 -1.6446341629344601e-15
p26Rd6 -2.185434631233251e-15
temp10Rnd5 -1.6446341629344601e-15
p11Rd6 9.190179481619315e-16
p27Rd6 -4.980583846582285e-16
temp11Rnd5 4.070817756958885e-16
p12Rd6 4.714115292597189e-16
p28Rd6 -6.711930002503403e-16
temp12Rnd5 -6.711930002503403e-16
p13Rd6 4.070817756958885e-16
p29Rd6 -3.380012319414373e-15
temp13Rnd5 -3.0839528461810007e-15
p14Rd6 -0.0
p30Rd6 1.0
temp14Rnd5 1.0
p15Rd6 -0.0
p31Rd6 -3.926759269108384e-15
temp15Rnd5 -3.926759269108384e-15
temp5 -1.702341971091911e-15
